
  32    4
  10   10   10   10

   0   0   0   0   0   2 2 15 
   1  10  10  10  10   1 3 
   8  10  10  10  10   1 4 
   1  10  10  10  10   1 5 
   2  10  10  10  10   1 6 
   2  10  10  10  10   1 7 
   9  10  10  10  10   2 19 8 
   3  10  10  10  10   1 9 
   9  10  10  10  10   1 10 
   4  10  10  10  10   2 31 11 
   2  10  10  10  10   1 12 
   2  10  10  10  10   1 13 
   6  10  10  10  10   2 30 14 
   6  10  10  10  10   3 29 28 16 
   6  10  10  10  10   4 30 29 28 18 
   8  10  10  10  10   2 24 17 
   6  10  10  10  10   1 18 
   1  10  10  10  10   3 27 26 20 
  10  10  10  10  10   2 26 20 
   9  10  10  10  10   1 21 
  10  10  10  10  10   1 22 
  10  10  10  10  10   1 23 
   5  10  10  10  10   1 25 
   5  10  10  10  10   1 26 
   2  10  10  10  10   1 32
   4  10  10  10  10   1 32
   5  10  10  10  10   1 32
   3  10  10  10  10   1 32
   8  10  10  10  10   1 32
  10  10  10  10  10   1 32
   4  10  10  10  10   1 32
   0   0   0   0   0   0 
